(set-logic QF_S)
(set-option :parse-transducers true)
(set-option :produce-models true)
(define-fun-rec toLower ((x String) (y String)) Bool
   (or (and (= x "") (= y ""))
       (and (not (= x "")) (not (= y ""))
           (= (char.code (str.head y))
               (ite (and (<= 65 (char.code (str.head x)))
                       (<= (char.code (str.head x)) 90))
                   (+ (char.code (str.head x)) 32)
                   (char.code (str.head x))))
           (toLower (str.tail x) (str.tail y))))
)
(declare-fun sym205 () String)
(declare-fun sym605 () String)
(declare-fun sym649 () String)
(declare-fun sym729 () String)
(declare-fun sym362 () String)
(declare-fun sym443 () String)
(declare-fun sym685 () String)
(declare-fun sym289 () String)
(declare-fun sym323 () String)
(declare-fun sym489 () String)
(declare-fun sym523 () String)
(declare-fun sym160 () String)
(declare-fun sym337 () String)
(declare-fun sym659 () String)
(declare-fun sym615 () String)
(declare-fun sym739 () String)
(declare-fun sym571 () String)
(declare-fun sym175 () String)
(declare-fun sym254 () String)
(declare-fun sym695 () String)
(declare-fun sym453 () String)
(declare-fun sym135 () String)
(declare-fun sym377 () String)
(declare-fun sym499 () String)
(declare-fun sym533 () String)
(declare-fun sym413 () String)
(declare-fun sym215 () String)
(declare-fun sym20 () String)
(declare-fun sym469 () String)
(declare-fun sym705 () String)
(declare-fun sym749 () String)
(declare-fun sym629 () String)
(declare-fun sym509 () String)
(declare-fun sym264 () String)
(declare-fun sym387 () String)
(declare-fun sym543 () String)
(declare-fun sym225 () String)
(declare-fun sym423 () String)
(declare-fun sym303 () String)
(declare-fun sym185 () String)
(declare-fun sym581 () String)
(declare-fun sym557 () String)
(declare-fun sym239 () String)
(declare-fun sym715 () String)
(declare-fun sym639 () String)
(declare-fun sym352 () String)
(declare-fun sym595 () String)
(declare-fun sym397 () String)
(declare-fun sym113 () String)
(declare-fun sym279 () String)
(declare-fun sym675 () String)
(declare-fun sym433 () String)
(declare-fun sym313 () String)
(declare-fun sym479 () String)
(declare-fun sym150 () String)
(declare-fun sym195 () String)
(declare-fun L23  () String)
(declare-fun L67  () String)
(declare-fun L106  () String)
(declare-fun L35  () String)
(declare-fun L79  () String)
(declare-fun L59  () String)
(declare-fun L7  () String)
(declare-fun L63  () String)
(declare-fun L75  () String)
(declare-fun L87  () String)
(declare-fun L11  () String)
(declare-fun L55  () String)
(declare-fun L99  () String)
(declare-fun L71  () String)
(declare-fun L110  () String)
(declare-fun L83  () String)
(declare-fun L95  () String)
(declare-fun L102  () String)
(declare-fun L91  () String)
(declare-fun L38  () String)
(declare-fun L18  () String)
(declare-fun L34  () String)
(declare-fun L46  () String)
(declare-fun L14  () String)
(declare-fun L26  () String)
(declare-fun L30  () String)
(declare-fun L8  () String)
(declare-fun L42  () String)
(declare-fun L10  () String)
(declare-fun L22  () String)
(declare-fun L4  () String)
(declare-fun L50  () String)
(declare-fun L0  () String)
(declare-fun L89  () String)
(declare-fun L57  () String)
(declare-fun L9  () String)
(declare-fun L69  () String)
(declare-fun L104  () String)
(declare-fun L85  () String)
(declare-fun L53  () String)
(declare-fun L97  () String)
(declare-fun L5  () String)
(declare-fun L65  () String)
(declare-fun L108  () String)
(declare-fun L33  () String)
(declare-fun L77  () String)
(declare-fun L81  () String)
(declare-fun L93  () String)
(declare-fun L1  () String)
(declare-fun L61  () String)
(declare-fun L73  () String)
(declare-fun L16  () String)
(declare-fun L28  () String)
(declare-fun L12  () String)
(declare-fun L24  () String)
(declare-fun L36  () String)
(declare-fun L48  () String)
(declare-fun L52  () String)
(declare-fun L20  () String)
(declare-fun L32  () String)
(declare-fun L6  () String)
(declare-fun L44  () String)
(declare-fun L2  () String)
(declare-fun L40  () String)
(assert (toLower sym557  L40 ))
(assert (toLower sym523  L2 ))
(assert (toLower sym639  L44 ))
(assert (toLower sym543  L6 ))
(assert (toLower sym499  L32 ))
(assert (toLower sym160  L20 ))
(assert (toLower sym20  L52 ))
(assert (toLower sym605  L48 ))
(assert (toLower sym739  L36 ))
(assert (toLower sym595  L24 ))
(assert (toLower sym337  L12 ))
(assert (toLower sym135  L28 ))
(assert (toLower sym695  L16 ))
(assert (toLower sym323  L73 ))
(assert (toLower sym715  L61 ))
(assert (toLower "name"  L1 ))
(assert (toLower sym352  L93 ))
(assert (toLower sym195  L81 ))
(assert (toLower sym362  L77 ))
(assert (toLower "length"  L33 ))
(assert (toLower sym175  L108 ))
(assert (toLower sym443  L65 ))
(assert (toLower "database"  L5 ))
(assert (toLower sym675  L97 ))
(assert (toLower sym581  L53 ))
(assert (toLower sym215  L85 ))
(assert (toLower sym397  L104 ))
(assert (toLower sym685  L69 ))
(assert (toLower "type"  L9 ))
(assert (toLower sym303  L57 ))
(assert (toLower sym729  L89 ))
(assert (toLower sym239  L0 ))
(assert (toLower sym705  L50 ))
(assert (toLower sym113  L4 ))
(assert (toLower sym453  L22 ))
(assert (toLower sym387  L10 ))
(assert (toLower sym264  L42 ))
(assert (toLower sym489  L8 ))
(assert (toLower sym150  L30 ))
(assert (toLower sym479  L26 ))
(assert (toLower sym254  L14 ))
(assert (toLower sym413  L46 ))
(assert (toLower sym225  L34 ))
(assert (toLower sym313  L18 ))
(assert (toLower sym185  L38 ))
(assert (toLower sym205  L91 ))
(assert (toLower sym433  L102 ))
(assert (toLower sym571  L95 ))
(assert (toLower sym279  L83 ))
(assert (toLower sym469  L110 ))
(assert (toLower sym629  L71 ))
(assert (toLower sym423  L99 ))
(assert (toLower sym533  L55 ))
(assert (toLower "description"  L11 ))
(assert (toLower sym749  L87 ))
(assert (toLower sym289  L75 ))
(assert (toLower sym509  L63 ))
(assert (toLower "field"  L7 ))
(assert (toLower sym659  L59 ))
(assert (toLower sym377  L79 ))
(assert (toLower "table"  L35 ))
(assert (toLower sym615  L106 ))
(assert (toLower sym649  L67 ))
(assert (toLower "option"  L23 ))

(assert (= L0 L1 ))
(assert (not (= L2 L1 )))
(assert (= L4 L5 ))
(assert (= L6 L7 ))
(assert (not (= L8 L9 )))
(assert (not (= L10 L11 )))
(assert (= L12 L1 ))
(assert (not (= L14 L1 )))
(assert (not (= L16 L9 )))
(assert (not (= L18 L11 )))
(assert (= L20 L11 ))
(assert (= L22 L23 ))
(assert (not (= L24 L1 )))
(assert (not (= L26 L11 )))
(assert (= L28 L1 ))
(assert (not (= L30 L1 )))
(assert (not (= L32 L33 )))
(assert (= L34 L35 ))
(assert (not (= L36 L11 )))
(assert (not (= L38 L11 )))
(assert (= L40 L1 ))
(assert (= L42 L11 ))
(assert (not (= L44 L11 )))
(assert (not (= L46 L1 )))
(assert (not (= L48 L11 )))
(assert (not (= L50 L33 )))
(assert (= L52 "html" ))
(assert (= L53 L11 ))
(assert (not (= L55 L11 )))
(assert (not (= L57 L1 )))
(assert (= L59 L33 ))
(assert (= L61 L23 ))
(assert (= L63 L23 ))
(assert (not (= L65 L33 )))
(assert (not (= L67 L9 )))
(assert (not (= L69 L11 )))
(assert (not (= L71 L1 )))
(assert (= L73 L7 ))
(assert (= L75 L11 ))
(assert (= L77 L11 ))
(assert (not (= L79 L1 )))
(assert (not (= L81 L35 )))
(assert (not (= L83 L1 )))
(assert (not (= L85 L11 )))
(assert (not (= L87 L7 )))
(assert (not (= L89 L1 )))
(assert (not (= L91 L1 )))
(assert (not (= L93 L1 )))
(assert (not (= L95 L1 )))
(assert (not (= L97 L1 )))
(assert (not (= L99 L11 )))
(assert (not (= L52 "sql" )))
(assert (not (= L102 L9 )))
(assert (= L104 L9 ))
(assert (= L106 L9 ))
(assert (not (= L108 L1 )))
(assert (not (= L110 L1 )))
(check-sat)
(get-model)
(exit)
